
Gurobi 9.0.2 (win64) logging started Sat Sep 30 22:17:08 2023

Changed value of parameter LogFile to C:\Users\u0138303\OneDrive - KU Leuven\JointResearch\05. Models\06.Benchmarking\H.Representative_days_based_on_Line_Benefit_NN_OC_fy_3\RTS24_ByStages/openStarNet_RTS24_ByStages.log
   Prev:   Default: 
Changed value of parameter Method to 2
   Prev: -1  Min: -1  Max: 5  Default: -1
Changed value of parameter MIPFocus to 1
   Prev: 0  Min: 0  Max: 3  Default: 0
Changed value of parameter Presolve to 2
   Prev: -1  Min: -1  Max: 2  Default: -1
Changed value of parameter RINS to 100
   Prev: -1  Min: -1  Max: 2000000000  Default: -1
Parameter Crossover unchanged
   Value: -1  Min: -1  Max: 5  Default: -1
Changed value of parameter MIPGap to 0.01
   Prev: 0.0001  Min: 0.0  Max: inf  Default: 0.0001
Changed value of parameter Threads to 6
   Prev: 0  Min: 0  Max: 1024  Default: 0
Changed value of parameter TimeLimit to 76000.0
   Prev: inf  Min: 0.0  Max: inf  Default: inf
Changed value of parameter IterationLimit to 76000000.0
   Prev: inf  Min: 0.0  Max: inf  Default: inf
Gurobi Optimizer version 9.0.2 build v9.0.2rc0 (win64)
Optimize a model with 930388 rows, 365421 columns and 3027097 nonzeros
Model fingerprint: 0x5c3c77ad
Variable types: 365382 continuous, 39 integer (39 binary)
Coefficient statistics:
  Matrix range     [1e-02, 3e+02]
  Objective range  [1e+00, 1e+00]
  Bounds range     [1e-04, 1e+00]
  RHS range        [1e-04, 1e+00]
Presolve removed 275812 rows and 70841 columns (presolve time = 5s) ...
Presolve removed 275812 rows and 70841 columns (presolve time = 10s) ...
Presolve removed 294532 rows and 89561 columns
Presolve time: 12.02s
Presolved: 635856 rows, 275860 columns, 2240173 nonzeros
Variable types: 275821 continuous, 39 integer (39 binary)
Presolved: 635856 rows, 275860 columns, 2240173 nonzeros

Root barrier log...

Ordering time: 0.41s

Barrier statistics:
 Dense cols : 39
 AA' NZ     : 7.037e+06
 Factor NZ  : 1.768e+07 (roughly 500 MBytes of memory)
 Factor Ops : 7.432e+08 (less than 1 second per iteration)
 Threads    : 5

                  Objective                Residual
Iter       Primal          Dual         Primal    Dual     Compl     Time
   0   5.67999143e+05 -1.29890508e+08  3.06e+00 7.49e+01  3.60e+02    20s
   1   2.05576611e+05 -4.15229559e+07  6.38e-01 4.57e+01  6.56e+01    20s
   2   9.20130041e+04 -7.85713345e+06  3.03e-02 4.53e-01  7.95e+00    21s
   3   4.88277286e+04 -1.72741315e+06  4.28e-03 4.39e-09  1.68e+00    22s
   4   2.53601355e+04 -6.46174881e+05  2.09e-03 1.50e-09  6.30e-01    23s
   5   1.38745264e+04 -2.95078875e+05  1.14e-03 6.34e-10  2.89e-01    23s
   6   7.82790213e+03 -1.26588953e+05  5.90e-04 2.48e-10  1.25e-01    24s
   7   2.57081041e+03 -3.39542413e+04  9.38e-05 5.27e-11  3.40e-02    25s
   8   1.24086310e+03 -1.00283300e+04  1.04e-05 1.59e-11  1.05e-02    25s
   9   8.03021987e+02 -3.99070852e+03  5.19e-06 5.63e-12  4.46e-03    26s
  10   6.22121385e+02 -1.85370275e+03  3.42e-06 3.59e-12  2.30e-03    27s
  11   4.45179435e+02 -9.06126956e+02  2.06e-06 1.47e-12  1.26e-03    27s
  12   3.22656264e+02 -2.13036291e+02  1.20e-06 1.10e-12  4.98e-04    28s
  13   2.72539611e+02 -3.91568115e+01  8.62e-07 6.87e-13  2.89e-04    29s
  14   2.37839132e+02  2.88526347e+01  6.35e-07 7.39e-13  1.94e-04    29s
  15   2.10377104e+02  7.47071199e+01  4.79e-07 6.67e-13  1.26e-04    30s
  16   1.94613429e+02  9.59281747e+01  3.77e-07 3.88e-13  9.16e-05    31s
  17   1.80012728e+02  1.07798257e+02  2.79e-07 3.69e-13  6.70e-05    32s
  18   1.70559399e+02  1.18204290e+02  2.18e-07 5.95e-13  4.86e-05    32s
  19   1.66611147e+02  1.22977870e+02  1.93e-07 5.99e-13  4.05e-05    33s
  20   1.60973478e+02  1.27191124e+02  1.57e-07 3.30e-13  3.13e-05    34s
  21   1.55698165e+02  1.29676564e+02  1.25e-07 4.29e-13  2.41e-05    35s
  22   1.51945062e+02  1.32375513e+02  9.90e-08 4.78e-13  1.82e-05    36s
  23   1.48890447e+02  1.33960688e+02  7.65e-08 5.38e-13  1.38e-05    37s
  24   1.44475500e+02  1.35708692e+02  4.57e-08 4.51e-13  8.13e-06    38s
  25   1.42116243e+02  1.36620468e+02  2.86e-08 4.66e-13  5.10e-06    39s
  26   1.40641209e+02  1.37139480e+02  1.79e-08 5.40e-13  3.25e-06    40s
  27   1.40174437e+02  1.37393800e+02  1.43e-08 4.03e-13  2.58e-06    40s
  28   1.40016247e+02  1.37492756e+02  1.31e-08 3.51e-13  2.34e-06    41s
  29   1.39542638e+02  1.37738209e+02  9.45e-09 3.49e-13  1.67e-06    42s
  30   1.39195656e+02  1.37921882e+02  6.82e-09 3.45e-13  1.18e-06    42s
  31   1.38744325e+02  1.38046003e+02  3.70e-09 4.31e-13  6.48e-07    43s
  32   1.38503043e+02  1.38158350e+02  1.75e-09 5.12e-13  3.20e-07    44s
  33   1.38387811e+02  1.38239658e+02  8.22e-10 3.89e-13  1.37e-07    45s
  34   1.38320628e+02  1.38265940e+02  2.95e-10 5.03e-13  5.07e-08    46s
  35   1.38314815e+02  1.38268449e+02  2.10e-08 2.55e-13  4.30e-08    46s
  36   1.38314814e+02  1.38268450e+02  2.29e-08 3.49e-13  4.30e-08    47s
  37   1.38314814e+02  1.38268450e+02  2.31e-08 4.34e-13  4.30e-08    48s
  38   1.38314439e+02  1.38268558e+02  2.28e-08 2.68e-13  4.26e-08    49s
  39   1.38298608e+02  1.38274176e+02  1.78e-08 3.91e-13  2.27e-08    50s
  40   1.38298563e+02  1.38274193e+02  4.24e-08 4.43e-13  2.26e-08    52s
  41   1.38298447e+02  1.38274234e+02  4.22e-08 4.22e-13  2.25e-08    53s
  42   1.38298443e+02  1.38274235e+02  4.21e-08 5.43e-13  2.25e-08    54s
  43   1.38298442e+02  1.38274236e+02  4.21e-08 3.54e-13  2.24e-08    55s
  44   1.38298384e+02  1.38274254e+02  4.20e-08 6.24e-13  2.24e-08    56s
  45   1.38298375e+02  1.38274254e+02  4.20e-08 5.68e-13  2.24e-08    57s
  46   1.38298375e+02  1.38274254e+02  4.20e-08 2.07e-12  2.24e-08    58s
  47   1.38298373e+02  1.38274255e+02  4.20e-08 5.45e-13  2.24e-08    60s
  48   1.38298373e+02  1.38274255e+02  4.20e-08 4.29e-13  2.24e-08    61s
  49   1.38298373e+02  1.38274255e+02  4.20e-08 4.04e-13  2.24e-08    62s

Barrier performed 49 iterations in 61.83 seconds
Sub-optimal termination - objective 1.38298608e+02


Root crossover log...

  128206 DPushes remaining with DInf 6.4004390e-02                63s
   13071 DPushes remaining with DInf 5.7588036e-02                65s
   11838 DPushes remaining with DInf 5.7588036e-02                71s
   11020 DPushes remaining with DInf 5.7588036e-02                75s
    9793 DPushes remaining with DInf 5.7588036e-02                81s
    8141 DPushes remaining with DInf 5.7588036e-02                86s
    6504 DPushes remaining with DInf 5.7588036e-02                90s
    4457 DPushes remaining with DInf 5.7588036e-02                95s
    3127 DPushes remaining with DInf 5.7588036e-02               101s
    2718 DPushes remaining with DInf 5.7588036e-02               105s
    1899 DPushes remaining with DInf 5.7588036e-02               111s
    1076 DPushes remaining with DInf 5.7588036e-02               116s
       0 DPushes remaining with DInf 0.0000000e+00               118s

  161149 PPushes remaining with PInf 1.2237426e-05               119s
   46272 PPushes remaining with PInf 1.7162870e+01               121s
   35888 PPushes remaining with PInf 1.7047976e+01               126s
   28045 PPushes remaining with PInf 4.8335427e+01               130s
   17408 PPushes remaining with PInf 4.5776099e+01               135s
    9811 PPushes remaining with PInf 4.0716690e+01               142s
    6914 PPushes remaining with PInf 4.0236308e+01               146s
    4741 PPushes remaining with PInf 4.1440586e+01               153s
    2093 PPushes remaining with PInf 4.1168310e+01               155s
       0 PPushes remaining with PInf 4.0737009e+01               158s

  Push phase complete: Pinf 4.0737009e+01, Dinf 1.1921212e+01    158s


Root simplex log...

Iteration    Objective       Primal Inf.    Dual Inf.      Time
  219513    1.3828074e+02   0.000000e+00   1.192121e+01    160s
  219922    1.3828063e+02   0.000000e+00   7.139776e-02    166s
  221032    1.3828071e+02   4.667174e+01   0.000000e+00    171s
  221225    1.3828102e+02   0.000000e+00   0.000000e+00    176s
  221225    1.3828102e+02   0.000000e+00   0.000000e+00    178s

Root relaxation: objective 1.382810e+02, 221225 iterations, 163.24 seconds

    Nodes    |    Current Node    |     Objective Bounds      |     Work
 Expl Unexpl |  Obj  Depth IntInf | Incumbent    BestBd   Gap | It/Node Time

     0     0  138.28102    0    4          -  138.28102      -     -  178s
H    0     0                     467.0900602  138.28102  70.4%     -  326s
H    0     0                     348.3397941  138.28102  60.3%     -  443s
     0     0  181.59427    0    6  348.33979  181.59427  47.9%     - 2318s
     0     0  181.59497    0    6  348.33979  181.59497  47.9%     - 2341s
     0     0  193.05731    0    4  348.33979  193.05731  44.6%     - 2884s
     0     0  193.06388    0    4  348.33979  193.06388  44.6%     - 2917s
     0     0  193.06388    0    4  348.33979  193.06388  44.6%     - 2921s
     0     0  197.37888    0    4  348.33979  197.37888  43.3%     - 3176s
     0     0  197.38547    0    4  348.33979  197.38547  43.3%     - 3198s
     0     0  197.39152    0    4  348.33979  197.39152  43.3%     - 3202s
     0     0  198.11909    0    4  348.33979  198.11909  43.1%     - 3286s
     0     0  198.12694    0    4  348.33979  198.12694  43.1%     - 3297s
     0     0  198.12694    0    4  348.33979  198.12694  43.1%     - 3301s
     0     0  198.15267    0    4  348.33979  198.15267  43.1%     - 3345s
H    0     0                     348.3397778  198.15267  43.1%     - 6502s
     0     2  198.15267    0    4  348.33978  198.15267  43.1%     - 6510s
     1     4  252.21339    1    6  348.33978  198.16688  43.1% 223844 7520s
     3     8  252.99308    2    5  348.33978  202.58484  41.8% 94610 7898s
     7    14  254.76933    3    5  348.33978  204.77327  41.2% 78452 8497s
    13    20  255.01633    4    3  348.33978  205.07110  41.1% 66722 8644s
    19    26  255.27214    5    2  348.33978  205.08986  41.1% 49874 8990s
H   21    26                     346.1349470  205.08986  40.7% 45518 8990s
    25    32  255.58564    6    3  346.13495  205.08986  40.7% 42344 9157s
    31    38  255.82981    7    2  346.13495  205.08986  40.7% 39391 9540s
    37    45  256.16682    8    2  346.13495  205.08986  40.7% 38862 9872s
    44    53  257.03142   10    3  346.13495  205.08986  40.7% 38992 10131s
    52    61  257.19271   11    2  346.13495  205.08986  40.7% 37533 10386s
H   60    67                     334.1731729  205.08986  38.6% 36580 21659s
H   66    73                     334.1731725  205.08986  38.6% 36632 33227s
H   69    73                     334.1731721  205.08986  38.6% 35720 33227s
H   70    73                     334.1731715  205.08986  38.6% 35427 33227s
    72    79  257.58898   15    3  334.17317  205.08986  38.6% 34920 35719s
    78    85  257.73970   16    3  334.17317  205.08986  38.6% 33736 36660s
    84    98  257.80256   17    3  334.17317  205.08986  38.6% 32939 37196s
    97   106  260.72201   18    3  334.17317  205.08986  38.6% 29805 38110s
   105   118  258.68921   18    4  334.17317  205.08986  38.6% 28458 38585s
   117   133  259.22027   21    4  334.17317  205.08986  38.6% 26971 39021s
   132   151  260.31989   23    4  334.17317  205.08986  38.6% 25135 39445s
   150   169  260.63538   24    5  334.17317  205.08986  38.6% 23167 39847s
   168   181  261.09374   27    3  334.17317  205.08986  38.6% 21496 40515s
   180   201  261.66898   30    4  334.17317  205.08986  38.6% 21389 41532s
H  200   202                     334.1731690  205.08986  38.6% 21247 45540s

Cutting planes:
  MIR: 3045
  RLT: 8
  Relax-and-lift: 204

Explored 209 nodes (5210013 simplex iterations) in 45541.52 seconds
Thread count was 6 (of 8 available processors)

Solution count 4: 334.173 346.135 348.34 467.09 

Solve interrupted
Best objective 3.341731690009e+02, best bound 2.050898566288e+02, gap 38.6277%

Gurobi 9.0.2 (win64) logging started Sun Oct  1 10:59:01 2023

Changed value of parameter LogFile to C:\Users\u0138303\OneDrive - KU Leuven\JointResearch\05. Models\06.Benchmarking\H.Representative_days_based_on_Line_Benefit_NN_OC_fy_3\RTS24_ByStages/openStarNet_RTS24_ByStages.log
   Prev:   Default: 
Changed value of parameter Method to 2
   Prev: -1  Min: -1  Max: 5  Default: -1
Changed value of parameter MIPFocus to 1
   Prev: 0  Min: 0  Max: 3  Default: 0
Changed value of parameter Presolve to 2
   Prev: -1  Min: -1  Max: 2  Default: -1
Changed value of parameter RINS to 100
   Prev: -1  Min: -1  Max: 2000000000  Default: -1
Parameter Crossover unchanged
   Value: -1  Min: -1  Max: 5  Default: -1
Changed value of parameter MIPGap to 0.01
   Prev: 0.0001  Min: 0.0  Max: inf  Default: 0.0001
Changed value of parameter Threads to 6
   Prev: 0  Min: 0  Max: 1024  Default: 0
Changed value of parameter TimeLimit to 76000.0
   Prev: inf  Min: 0.0  Max: inf  Default: inf
Changed value of parameter IterationLimit to 76000000.0
   Prev: inf  Min: 0.0  Max: inf  Default: inf
Gurobi Optimizer version 9.0.2 build v9.0.2rc0 (win64)
Optimize a model with 232600 rows, 91847 columns and 757709 nonzeros
Model fingerprint: 0x56e13eb8
Variable types: 91808 continuous, 39 integer (39 binary)
Coefficient statistics:
  Matrix range     [1e-02, 8e+02]
  Objective range  [1e+00, 1e+00]
  Bounds range     [5e-05, 1e+00]
  RHS range        [5e-05, 1e+00]
Presolve removed 73636 rows and 22690 columns
Presolve time: 3.45s
Presolved: 158964 rows, 69157 columns, 560206 nonzeros
Variable types: 69118 continuous, 39 integer (39 binary)
Presolved: 158964 rows, 69157 columns, 560206 nonzeros

Root barrier log...

Ordering time: 0.09s

Barrier statistics:
 Dense cols : 39
 AA' NZ     : 1.759e+06
 Factor NZ  : 4.421e+06 (roughly 130 MBytes of memory)
 Factor Ops : 1.858e+08 (less than 1 second per iteration)
 Threads    : 5

                  Objective                Residual
Iter       Primal          Dual         Primal    Dual     Compl     Time
   0   5.67461406e+05 -1.26200658e+08  3.05e+00 3.01e+02  1.40e+03     5s
   1   2.04266584e+05 -4.02151785e+07  6.31e-01 1.77e+02  2.53e+02     5s
   2   9.21766769e+04 -7.56519386e+06  3.42e-02 7.50e-09  3.09e+01     6s
   3   4.46724614e+04 -1.63146495e+06  3.10e-03 1.41e-09  6.30e+00     6s
   4   1.82706477e+04 -6.55637098e+05  9.77e-04 5.19e-10  2.52e+00     6s
   5   1.00476136e+04 -2.92287746e+05  5.34e-04 2.17e-10  1.13e+00     6s
   6   5.74888055e+03 -1.17419919e+05  2.70e-04 7.83e-11  4.59e-01     6s
   7   2.53748117e+03 -3.13962319e+04  6.46e-05 1.70e-11  1.26e-01     6s
   8   1.17071946e+03 -8.84973643e+03  6.25e-06 3.80e-12  3.72e-02     7s
   9   7.35062348e+02 -3.87730468e+03  2.98e-06 1.90e-12  1.71e-02     7s
  10   5.32142710e+02 -1.72501288e+03  1.81e-06 8.91e-13  8.39e-03     7s
  11   3.85914851e+02 -8.44087452e+02  1.06e-06 8.78e-13  4.57e-03     7s
  12   2.80734216e+02 -3.84007519e+02  5.30e-07 9.13e-13  2.47e-03     7s
  13   2.37316149e+02 -1.58242551e+02  3.53e-07 5.31e-13  1.47e-03     7s
  14   2.14585906e+02 -1.86141297e+01  2.68e-07 6.07e-13  8.65e-04     8s
  15   1.92550832e+02  5.89788016e+01  1.90e-07 5.46e-13  4.95e-04     8s
  16   1.80757735e+02  7.40118933e+01  1.52e-07 5.87e-13  3.96e-04     8s
  17   1.73377660e+02  8.50038166e+01  1.26e-07 6.15e-13  3.28e-04     8s
  18   1.62981020e+02  1.09076396e+02  8.91e-08 1.03e-12  2.00e-04     8s
  19   1.55564001e+02  1.11797084e+02  6.60e-08 6.69e-13  1.62e-04     9s
  20   1.53196816e+02  1.23426157e+02  5.74e-08 9.84e-13  1.10e-04     9s
  21   1.50387234e+02  1.25210977e+02  4.80e-08 8.99e-13  9.33e-05     9s
  22   1.48534183e+02  1.28469600e+02  4.23e-08 7.35e-13  7.44e-05     9s
  23   1.45801018e+02  1.29432874e+02  3.34e-08 7.72e-13  6.07e-05     9s
  24   1.43057265e+02  1.33520759e+02  2.32e-08 6.56e-13  3.53e-05    10s
  25   1.41087212e+02  1.33988911e+02  1.60e-08 8.67e-13  2.63e-05    10s
  26   1.40308325e+02  1.35343705e+02  1.29e-08 6.83e-13  1.84e-05    10s
  27   1.39274506e+02  1.36027273e+02  8.92e-09 8.29e-13  1.20e-05    10s
  28   1.38419490e+02  1.36533841e+02  5.33e-09 5.91e-13  6.99e-06    10s
  29   1.37584099e+02  1.37004713e+02  1.87e-09 1.22e-12  2.15e-06    11s
  30   1.37358525e+02  1.37080696e+02  9.52e-10 6.15e-13  1.03e-06    11s
  31   1.37200711e+02  1.37099531e+02  3.18e-10 7.24e-13  3.75e-07    11s
  32   1.37148071e+02  1.37108760e+02  1.09e-10 9.08e-13  1.46e-07    11s
  33   1.37138184e+02  1.37114629e+02  1.54e-09 1.90e-12  8.73e-08    11s
  34   1.37138176e+02  1.37114632e+02  2.81e-08 1.91e-12  8.72e-08    11s
  35   1.37136273e+02  1.37114938e+02  2.71e-08 1.80e-12  7.90e-08    12s
  36   1.37135288e+02  1.37115217e+02  2.55e-08 2.90e-12  7.43e-08    12s
  37   1.37135166e+02  1.37115250e+02  2.53e-08 2.94e-12  7.38e-08    12s
  38   1.37135161e+02  1.37115256e+02  2.53e-08 3.01e-12  7.37e-08    12s
  39   1.37135160e+02  1.37115256e+02  2.68e-08 8.23e-13  7.37e-08    13s
  40   1.37135148e+02  1.37115257e+02  2.68e-08 4.31e-12  7.37e-08    13s
  41   1.37135041e+02  1.37115272e+02  2.66e-08 8.54e-13  7.32e-08    13s
  42   1.37134818e+02  1.37115333e+02  2.62e-08 8.63e-13  7.22e-08    13s
  43   1.37134686e+02  1.37115369e+02  2.60e-08 1.07e-12  7.15e-08    14s
  44   1.37134667e+02  1.37115374e+02  2.60e-08 1.17e-12  7.14e-08    14s
  45   1.37133958e+02  1.37115436e+02  2.46e-08 1.08e-12  6.86e-08    14s
  46   1.37133941e+02  1.37115442e+02  3.24e-08 1.30e-12  6.85e-08    14s

Barrier performed 46 iterations in 14.33 seconds
Sub-optimal termination - objective 1.37138184e+02


Root crossover log...

   32768 DPushes remaining with DInf 3.3810775e-03                15s
   26293 DPushes remaining with DInf 3.3810775e-03                15s
   24667 DPushes remaining with DInf 3.3607613e-03                21s
   23127 DPushes remaining with DInf 3.3607613e-03                26s
   21587 DPushes remaining with DInf 3.3607613e-03                30s
   19364 DPushes remaining with DInf 3.3607613e-03                35s
   16944 DPushes remaining with DInf 3.3607613e-03                40s
   13421 DPushes remaining with DInf 3.3607613e-03                45s
   10999 DPushes remaining with DInf 3.3607613e-03                50s
    8799 DPushes remaining with DInf 3.3607613e-03                55s
    6817 DPushes remaining with DInf 3.3607613e-03                61s
    5252 DPushes remaining with DInf 3.3607613e-03                65s
    2453 DPushes remaining with DInf 3.3607613e-03                70s
       0 DPushes remaining with DInf 0.0000000e+00                74s

   31337 PPushes remaining with PInf 9.3251303e-02                74s
    6365 PPushes remaining with PInf 1.8023927e-02                75s
       0 PPushes remaining with PInf 1.3584228e-04                79s

  Push phase complete: Pinf 1.3584228e-04, Dinf 1.4452113e+00     79s


Root simplex log...

Iteration    Objective       Primal Inf.    Dual Inf.      Time
   59876    1.3711978e+02   0.000000e+00   1.445211e+00     79s
   60040    1.3711954e+02   0.000000e+00   0.000000e+00     80s
   60040    1.3711954e+02   0.000000e+00   0.000000e+00     80s

Root relaxation: objective 1.371195e+02, 60040 iterations, 75.77 seconds

    Nodes    |    Current Node    |     Objective Bounds      |     Work
 Expl Unexpl |  Obj  Depth IntInf | Incumbent    BestBd   Gap | It/Node Time

     0     0  137.11954    0    4          -  137.11954      -     -   80s
H    0     0                     465.6183925  137.11954  70.6%     -  101s
H    0     0                     346.2160760  137.11954  60.4%     -  118s
     0     0  179.55427    0    6  346.21608  179.55427  48.1%     -  184s
     0     0  179.55491    0    6  346.21608  179.55491  48.1%     -  187s
     0     0  191.15592    0    4  346.21608  191.15592  44.8%     -  203s
     0     0  191.16230    0    4  346.21608  191.16230  44.8%     -  207s
     0     0  191.16230    0    4  346.21608  191.16230  44.8%     -  207s
     0     0  194.91338    0    4  346.21608  194.91338  43.7%     -  222s
     0     0  194.91343    0    4  346.21608  194.91343  43.7%     -  224s
     0     0  195.81535    0    4  346.21608  195.81535  43.4%     -  229s
     0     0  195.81535    0    4  346.21608  195.81535  43.4%     -  231s
     0     0  195.84880    0    4  346.21608  195.84880  43.4%     -  235s
H    0     0                     346.2160751  195.84880  43.4%     -  305s
H    0     0                     346.2160720  195.84880  43.4%     -  349s
     0     2  195.84880    0    4  346.21607  195.84880  43.4%     -  438s
     1     4  248.74895    1    6  346.21607  195.85544  43.4% 53956  489s
     3     8  249.60545    2    5  346.21607  200.38805  42.1% 24074  510s
     7    14  251.18698    3    5  346.21607  202.71860  41.4% 17481  538s
    13    20  251.43778    4    3  346.21607  202.71860  41.4% 14496  548s
    19    26  251.52015    5    2  346.21607  202.71860  41.4% 10791  566s
    25    32  251.84075    6    3  346.21607  202.71860  41.4%  9249  580s
    31    38  252.01729    7    2  346.21607  202.71860  41.4%  8705  622s
H   33    38                     344.6253368  202.71860  41.2%  8468  622s
    37    44  252.38350    8    2  344.62534  202.71860  41.2%  9394  658s
H   39    44                     343.9891401  202.71860  41.1%  9050  658s
    43    53  252.52602    9    3  343.98914  202.71860  41.1%  8937  671s
    52    60  253.51720   11    2  343.98914  202.71860  41.1%  8372  699s
H   59    66                     343.9891387  202.71860  41.1%  8406 1234s
H   61    66                     331.8308605  202.71860  38.9%  8249 1234s
    65    72  253.77523   13    4  331.83086  202.71860  38.9%  8076 1831s
H   66    72                     331.8308590  202.71860  38.9%  7954 1831s
    71    83  253.80932   14    3  331.83086  202.71860  38.9%  8016 1945s
    82    95  254.08511   16    4  331.83086  202.71860  38.9%  7644 1977s
    94   101  254.23460   18    3  331.83086  202.71860  38.9%  6934 2044s
H   96   101                     331.8308585  202.71860  38.9%  6851 2044s
   100   107  254.29448   19    3  331.83086  202.71860  38.9%  6686 2643s
   106   118  254.39537   20    3  331.83086  202.71860  38.9%  6437 2670s
   117   137  254.43921   21    3  331.83086  202.71860  38.9%  6018 2695s
   136   156  256.67399   23    4  331.83086  202.71860  38.9%  5541 2729s
   155   177  257.12299   25    3  331.83086  202.71860  38.9%  5192 2771s
   176   196  258.14023   30    4  331.83086  202.71860  38.9%  5082 2810s
   195   209  301.16606   34    1  331.83086  202.71860  38.9%  4965 3031s
   214   218  297.24978   34    1  331.83086  202.71860  38.9%  4980 3117s
   227   221     cutoff   35       331.83086  203.91698  38.5%  5134 3164s
   242   230  297.44462    4    3  331.83086  203.91698  38.5%  5506 3219s
   254   241  298.12065    8    3  331.83086  203.91698  38.5%  5764 3287s
   269   251  299.03108   10    4  331.83086  203.91698  38.5%  6121 3355s
   285   256  299.51179   13    3  331.83086  203.91698  38.5%  6300 3425s
   304   281  299.73341   16    3  331.83086  203.91698  38.5%  6406 3482s
   329   315  304.66865   24    3  331.83086  203.91698  38.5%  6177 3539s
   363   337     cutoff   34       331.83086  203.91698  38.5%  6013 3615s
   389   351     cutoff   33       331.83086  203.91698  38.5%  5989 3685s
   411   357     cutoff   35       331.83086  204.27316  38.4%  6090 3769s
   427   375  206.67489    7    3  331.83086  204.27316  38.4%  6348 3855s
   453   384  208.80748   14    3  331.83086  204.27316  38.4%  6607 3938s
   470   394  212.26767   19    4  331.83086  204.27316  38.4%  6858 4042s
   486   418  213.28826   22    4  331.83086  204.27316  38.4%  7022 4143s
   514   427     cutoff   35       331.83086  204.27316  38.4%  7091 4257s
   539   431     cutoff   35       331.83086  204.27316  38.4%  7364 4296s

Cutting planes:
  MIR: 934
  RLT: 3
  Relax-and-lift: 77

Explored 553 nodes (4139091 simplex iterations) in 4297.10 seconds
Thread count was 6 (of 8 available processors)

Solution count 5: 331.831 343.989 344.625 ... 465.618

Solve interrupted
Best objective 3.318308585184e+02, best bound 2.042731556229e+02, gap 38.4406%
